c
c start with comments
c
p cnf 25 16
-20 15 15 0
-6 1 13 0
-2 -16 0
24 26 14 10 -15 0
28 25 0
18 -6 24 0
22 10 13 -23 0
-28 21 19 -8 -9 0
6 -26 -11 0
2 -3 0
-18 -19 -23 0
4 -14 10 0
18 5 -15 6 0
14 -9 -12 24 24 0
26 3 12 0
-21 5 22 22 11 0